133815
0 1 17 16 15 14 13 2 3 4 409 410 403 411 402 401 400 399 398 397 396 378 377 376 375 374 373 372 370 371 362 369 361 360 359 358 357 356 355 354 353 381 382 383 384 386 385 388 389 387 390 391 393 392 423 422 421 420 419 418 417 416 415 414 413 412 438 437 436 435 434 433 432 431 430 429 30 31 428 33 32 29 28 27 26 25 24 23 22 21 20 19 18 47 46 45 44 88 87 86 85 48 49 50 51 52 81 82 83 84 110 111 109 108 107 106 105 104 103 102 101 100 99 98 97 95 96 36 37 38 39 94 93 92 91 90 89 43 42 41 40 35 34 427 426 425 424 394 395 380 379 345 343 342 344 318 347 349 350 351 352 348 346 341 340 338 337 335 334 336 339 320 319 314 315 317 316 313 312 311 321 322 333 332 323 324 325 326 307 308 309 310 289 290 291 284 285 286 287 288 238 239 240 241 243 242 244 283 245 246 248 247 282 292 293 328 327 363 365 366 367 364 404 331 330 329 294 295 280 279 278 296 297 305 306 277 276 298 299 300 301 275 274 273 272 270 269 267 266 268 265 264 262 260 259 230 229 228 227 226 225 224 223 222 221 271 220 263 261 258 257 256 255 254 253 252 236 235 234 233 232 231 251 281 250 249 237 53 54 55 56 57 58 59 74 75 76 77 78 79 80 113 114 115 116 117 118 119 140 141 142 143 144 145 146 147 148 149 158 165 166 167 168 181 180 196 195 199 200 201 194 169 170 160 159 157 156 125 126 128 129 127 130 131 133 134 132 135 136 138 139 137 72 73 71 70 69 68 67 66 65 60 12 11 5 407 408 406 10 61 62 9 8 63 64 124 123 122 121 153 152 151 163 162 164 174 175 173 178 177 176 179 172 171 161 155 154 120 6 7 405 368 302 303 304 219 215 216 217 218 214 183 188 189 191 190 205 204 206 207 210 202 192 193 187 213 212 203 186 150 112 182 184 185 197 198 208 209 211 
